\ENCODING=ISO-8859-1
\Problem name: 

Minimize
 obj1: 0 x_0_0 + 85 x_0_1 + 349 x_0_2 + 17 x_0_3 + 203 x_0_4 + 85 x_1_0
       + 0 x_1_1 + 265 x_1_2 + 102 x_1_3 + 214 x_1_4 + 349 x_2_0 + 265 x_2_1
       + 0 x_2_2 + 366 x_2_3 + 368 x_2_4 + 17 x_3_0 + 102 x_3_1 + 366 x_3_2
       + 0 x_3_3 + 207 x_3_4 + 203 x_4_0 + 214 x_4_1 + 368 x_4_2 + 207 x_4_3
       + 0 x_4_4
Subject To
 c1:  x_1_0 + x_2_0 + x_3_0 + x_4_0  = 1
 c2:  x_0_1 + x_2_1 + x_3_1 + x_4_1  = 1
 c3:  x_0_2 + x_1_2 + x_3_2 + x_4_2  = 1
 c4:  x_0_3 + x_1_3 + x_2_3 + x_4_3  = 1
 c5:  x_0_4 + x_1_4 + x_2_4 + x_3_4  = 1
 c6:  x_0_1 + x_0_2 + x_0_3 + x_0_4  = 1
 c7:  x_1_0 + x_1_2 + x_1_3 + x_1_4  = 1
 c8:  x_2_0 + x_2_1 + x_2_3 + x_2_4  = 1
 c9:  x_3_0 + x_3_1 + x_3_2 + x_3_4  = 1
 c10: x_4_0 + x_4_1 + x_4_2 + x_4_3  = 1
Bounds
 0 <= x_0_0 <= 1
 0 <= x_0_1 <= 1
 0 <= x_0_2 <= 1
 0 <= x_0_3 <= 1
 0 <= x_0_4 <= 1
 0 <= x_1_0 <= 1
 0 <= x_1_1 <= 1
 0 <= x_1_2 <= 1
 0 <= x_1_3 <= 1
 0 <= x_1_4 <= 1
 0 <= x_2_0 <= 1
 0 <= x_2_1 <= 1
 0 <= x_2_2 <= 1
 0 <= x_2_3 <= 1
 0 <= x_2_4 <= 1
 0 <= x_3_0 <= 1
 0 <= x_3_1 <= 1
 0 <= x_3_2 <= 1
 0 <= x_3_3 <= 1
 0 <= x_3_4 <= 1
 0 <= x_4_0 <= 1
 0 <= x_4_1 <= 1
 0 <= x_4_2 <= 1
 0 <= x_4_3 <= 1
 0 <= x_4_4 <= 1
Binaries
 x_0_0  x_0_1  x_0_2  x_0_3  x_0_4  x_1_0  x_1_1  x_1_2  x_1_3  x_1_4  x_2_0 
 x_2_1  x_2_2  x_2_3  x_2_4  x_3_0  x_3_1  x_3_2  x_3_3  x_3_4  x_4_0  x_4_1 
 x_4_2  x_4_3  x_4_4 
End
